2 3 6 0 1 5 9 -1 -1 -1 
2 -1 7 4 6 3 7 -1 10 -1 
2 -1 1 0 3 4 0 4 6 -1 
9 7 3 4 6 7 6 4 3 -1 
1 -1 1 3 0 8 5 4 9 -1 
7 -1 7 9 9 10 3 9 -1 -1 
1 3 -1 4 9 9 3 5 10 -1 
5 9 8 5 3 6 5 8 9 -1 
3 0 4 9 1 0 1 0 -1 -1 
4 0 4 0 3 0 0 10 0 -1 
